(declare-fun e () String)
(declare-fun g () String)
(declare-fun b () String)
(declare-fun f () String)
(declare-fun a () String)
(declare-fun h () String)
(assert (= (str.++ "adaac" g) (str.++ f a b)))
(assert (= "ff" (str.++ "fc" f e "d" h)))
(assert (= "g" (str.++ g "da")))

(check-sat)
